# Objective value = 5
C1,2 0
C1,6 0
C2,3 0
C2,7 0
C3,4 0
C3,8 0
C4,5 0
C4,9 0
C5,10 0
C6,7 0
C6,11 0
C7,8 0
C7,12 1
C8,9 0
C8,13 0
C9,10 0
C9,14 0
C10,15 0
C11,12 1
C11,16 0
C12,13 1
C12,17 1
C13,14 0
C13,18 1
C14,15 0
C14,19 0
C15,20 0
C16,17 0
C16,21 0
C17,18 1
C17,22 1
C18,19 1
C18,23 0
C19,20 0
C19,24 0
C20,25 0
C21,22 0
C22,23 0
C23,24 0
C24,25 0
Offset 3
X1,1 0
X1,2 0
X1,3 0
X1,4 1
X1,5 0
X1,6 0
X1,7 0
X1,8 0
X1,9 0
X1,10 0
X1,11 0
X1,12 0
X1,13 0
X1,14 0
X1,15 0
X1,16 0
X1,17 0
X1,18 0
X1,19 0
X1,20 0
X1,21 0
X1,22 0
X1,23 0
X1,24 0
X1,25 0
X2,1 0
X2,2 0
X2,3 0
X2,4 0
X2,5 0
X2,6 0
X2,7 0
X2,8 0
X2,9 1
X2,10 0
X2,11 0
X2,12 0
X2,13 0
X2,14 0
X2,15 0
X2,16 0
X2,17 0
X2,18 0
X2,19 0
X2,20 0
X2,21 0
X2,22 0
X2,23 0
X2,24 0
X2,25 0
X3,1 0
X3,2 0
X3,3 0
X3,4 0
X3,5 0
X3,6 0
X3,7 0
X3,8 1
X3,9 0
X3,10 0
X3,11 0
X3,12 0
X3,13 0
X3,14 0
X3,15 0
X3,16 0
X3,17 0
X3,18 0
X3,19 0
X3,20 0
X3,21 0
X3,22 0
X3,23 0
X3,24 0
X3,25 0
X4,1 0
X4,2 0
X4,3 0
X4,4 0
X4,5 0
X4,6 0
X4,7 1
X4,8 0
X4,9 0
X4,10 0
X4,11 0
X4,12 0
X4,13 0
X4,14 0
X4,15 0
X4,16 0
X4,17 0
X4,18 0
X4,19 0
X4,20 0
X4,21 0
X4,22 0
X4,23 0
X4,24 0
X4,25 0
X5,1 0
X5,2 0
X5,3 0
X5,4 0
X5,5 0
X5,6 1
X5,7 0
X5,8 0
X5,9 0
X5,10 0
X5,11 0
X5,12 0
X5,13 0
X5,14 0
X5,15 0
X5,16 0
X5,17 0
X5,18 0
X5,19 0
X5,20 0
X5,21 0
X5,22 0
X5,23 0
X5,24 0
X5,25 0
X6,1 0
X6,2 0
X6,3 0
X6,4 0
X6,5 0
X6,6 0
X6,7 0
X6,8 0
X6,9 0
X6,10 0
X6,11 1
X6,12 0
X6,13 0
X6,14 0
X6,15 0
X6,16 0
X6,17 0
X6,18 0
X6,19 0
X6,20 0
X6,21 0
X6,22 0
X6,23 0
X6,24 0
X6,25 0
X7,1 0
X7,2 0
X7,3 0
X7,4 0
X7,5 0
X7,6 0
X7,7 0
X7,8 0
X7,9 0
X7,10 0
X7,11 0
X7,12 1
X7,13 0
X7,14 0
X7,15 0
X7,16 0
X7,17 0
X7,18 0
X7,19 0
X7,20 0
X7,21 0
X7,22 0
X7,23 0
X7,24 0
X7,25 0
X8,1 0
X8,2 0
X8,3 0
X8,4 0
X8,5 0
X8,6 0
X8,7 0
X8,8 0
X8,9 0
X8,10 0
X8,11 0
X8,12 0
X8,13 0
X8,14 0
X8,15 0
X8,16 0
X8,17 1
X8,18 0
X8,19 0
X8,20 0
X8,21 0
X8,22 0
X8,23 0
X8,24 0
X8,25 0
X9,1 0
X9,2 0
X9,3 0
X9,4 0
X9,5 0
X9,6 0
X9,7 0
X9,8 0
X9,9 0
X9,10 0
X9,11 0
X9,12 0
X9,13 0
X9,14 0
X9,15 0
X9,16 1
X9,17 0
X9,18 0
X9,19 0
X9,20 0
X9,21 0
X9,22 0
X9,23 0
X9,24 0
X9,25 0
X10,1 0
X10,2 0
X10,3 0
X10,4 0
X10,5 0
X10,6 0
X10,7 0
X10,8 0
X10,9 0
X10,10 0
X10,11 0
X10,12 0
X10,13 0
X10,14 0
X10,15 0
X10,16 0
X10,17 0
X10,18 0
X10,19 0
X10,20 0
X10,21 1
X10,22 0
X10,23 0
X10,24 0
X10,25 0
X11,1 0
X11,2 0
X11,3 0
X11,4 0
X11,5 0
X11,6 0
X11,7 0
X11,8 0
X11,9 0
X11,10 0
X11,11 0
X11,12 0
X11,13 0
X11,14 0
X11,15 0
X11,16 0
X11,17 0
X11,18 0
X11,19 0
X11,20 0
X11,21 0
X11,22 1
X11,23 0
X11,24 0
X11,25 0
X12,1 0
X12,2 0
X12,3 0
X12,4 0
X12,5 0
X12,6 0
X12,7 0
X12,8 0
X12,9 0
X12,10 0
X12,11 0
X12,12 0
X12,13 0
X12,14 0
X12,15 0
X12,16 0
X12,17 0
X12,18 0
X12,19 0
X12,20 0
X12,21 0
X12,22 0
X12,23 1
X12,24 0
X12,25 0
X13,1 0
X13,2 0
X13,3 0
X13,4 0
X13,5 0
X13,6 0
X13,7 0
X13,8 0
X13,9 0
X13,10 0
X13,11 0
X13,12 0
X13,13 0
X13,14 0
X13,15 0
X13,16 0
X13,17 0
X13,18 1
X13,19 0
X13,20 0
X13,21 0
X13,22 0
X13,23 0
X13,24 0
X13,25 0
X14,1 0
X14,2 0
X14,3 0
X14,4 0
X14,5 0
X14,6 0
X14,7 0
X14,8 0
X14,9 0
X14,10 0
X14,11 0
X14,12 0
X14,13 0
X14,14 0
X14,15 0
X14,16 0
X14,17 0
X14,18 0
X14,19 1
X14,20 0
X14,21 0
X14,22 0
X14,23 0
X14,24 0
X14,25 0
X15,1 0
X15,2 0
X15,3 0
X15,4 0
X15,5 0
X15,6 0
X15,7 0
X15,8 0
X15,9 0
X15,10 0
X15,11 0
X15,12 0
X15,13 0
X15,14 1
X15,15 0
X15,16 0
X15,17 0
X15,18 0
X15,19 0
X15,20 0
X15,21 0
X15,22 0
X15,23 0
X15,24 0
X15,25 0
X16,1 0
X16,2 0
X16,3 0
X16,4 0
X16,5 0
X16,6 0
X16,7 0
X16,8 0
X16,9 0
X16,10 0
X16,11 0
X16,12 0
X16,13 1
X16,14 0
X16,15 0
X16,16 0
X16,17 0
X16,18 0
X16,19 0
X16,20 0
X16,21 0
X16,22 0
X16,23 0
X16,24 0
X16,25 0
I1 0
I2 0
I3 0
I4 0
I5 0
I6 0
I7 1
I8 0
I9 0
I10 0
I11 1
I12 1
I13 1
I14 0
I15 0
I16 0
I17 1
I18 1
I19 1
I20 0
I21 0
I22 1
I23 0
I24 0
I25 0
